4739
4718
4831
4788
4772
4776
4674
4638
4740
4749
4730
4735
4772
4746
4810
4718
4704
4829
4761
4636
4765
4722
4673
4745
4711
4720
4768
4801
4687
4776
4749
4677
4705
4691
4818
4787
4736
4764
4830
4745
4772
4788
4798
4721
4793
4856
4727
4687
4719
4796
4850
4763
4692
4761
4807
4749
4826
4728
4826
4800
4769
4772
4749
4807
4729
4807
4778
4755
4811
4724
4771
4713
4757
4828
4768
4741
4768
4711
4807
4791
4714
4665
4791
4759
4738
4784
4739
4789
4693
4764
4765
4749
4785
4720
4753
4699
4712
4750
4780
4741
